
Gurobi 7.0.2 (linux64, Matlab) logging started Sun Sep  2 08:56:40 2018


Gurobi 7.0.2 (linux64) logging started Sun Sep  2 08:56:40 2018

Optimize a model with 107522 rows, 216565 columns and 658933 nonzeros
Coefficient statistics:
  Matrix range     [2e-02, 9e+00]
  Objective range  [7e-04, 7e-04]
  Bounds range     [2e+02, 5e+05]
  RHS range        [1e+01, 1e+03]
Iteration    Objective       Primal Inf.    Dual Inf.      Time
       0   -1.6934753e+03   0.000000e+00   0.000000e+00      0s

Solved in 0 iterations and 0.05 seconds
Optimal objective -1.693475259e+03
